39
[-1, 109, 447, 0, 467, 179, 0, 150, 310, 15, 0, 200, 0, 0, 0, 459, 0, 0, 256, 114, 0, 0, 0, 0, 264, 399, 0, 241, 77, 0, 419, 429, 66, 92, 0, 0, 0, 361, 89, 
109, -1, 57, 0, 183, 0, 258, 334, 0, 20, 160, 441, 0, 0, 0, 493, 20, 207, 0, 0, 307, 0, 0, 0, 0, 0, 0, 0, 0, 0, 0, 0, 0, 404, 456, 0, 72, 0, 0, 
447, 57, -1, 0, 48, 99, 311, 0, 47, 234, 0, 197, 0, 0, 0, 454, 0, 0, 0, 0, 466, 0, 0, 0, 298, 203, 44, 0, 0, 0, 320, 0, 180, 27, 101, 0, 416, 0, 155, 
0, 0, 0, -1, 29, 0, 426, 453, 458, 232, 235, 0, 0, 0, 0, 0, 135, 0, 0, 0, 0, 0, 0, 136, 0, 431, 0, 0, 0, 0, 458, 0, 219, 49, 88, 0, 66, 0, 0, 
467, 183, 48, 29, -1, 36, 0, 48, 0, 261, 459, 218, 0, 0, 0, 28, 386, 57, 0, 33, 491, 0, 0, 0, 0, 0, 347, 179, 80, 0, 0, 0, 483, 0, 477, 140, 0, 0, 480, 
179, 0, 99, 0, 36, -1, 393, 397, 0, 0, 101, 0, 0, 0, 0, 0, 315, 54, 67, 0, 352, 219, 389, 0, 0, 0, 382, 320, 114, 46, 0, 463, 0, 163, 0, 0, 0, 0, 0, 
0, 258, 311, 426, 0, 393, -1, 0, 119, 0, 155, 52, 61, 0, 28, 9, 179, 34, 0, 0, 311, 0, 293, 0, 0, 77, 309, 0, 0, 301, 0, 0, 78, 156, 0, 448, 0, 0, 0, 
150, 334, 0, 453, 48, 397, 0, -1, 0, 424, 424, 25, 105, 296, 361, 0, 0, 366, 165, 139, 0, 208, 34, 323, 0, 58, 0, 496, 90, 0, 29, 351, 231, 0, 0, 106, 130, 0, 14, 
310, 0, 47, 458, 0, 0, 119, 0, -1, 0, 52, 0, 0, 35, 0, 92, 45, 0, 205, 0, 9, 162, 300, 0, 0, 0, 418, 0, 0, 0, 0, 28, 453, 0, 0, 97, 311, 458, 0, 
15, 20, 234, 232, 261, 0, 0, 424, 0, -1, 350, 63, 136, 0, 110, 0, 0, 0, 60, 0, 0, 435, 131, 402, 238, 0, 99, 175, 0, 461, 0, 395, 0, 468, 0, 0, 0, 0, 0, 
0, 160, 0, 235, 459, 101, 155, 424, 52, 350, -1, 271, 0, 447, 0, 0, 181, 109, 0, 0, 403, 0, 393, 0, 0, 0, 204, 0, 0, 0, 0, 0, 355, 475, 489, 292, 22, 79, 0, 
200, 441, 197, 0, 218, 0, 52, 25, 0, 63, 271, -1, 0, 71, 0, 456, 0, 0, 307, 0, 275, 51, 0, 490, 0, 227, 491, 297, 0, 0, 0, 297, 0, 68, 0, 13, 0, 151, 5, 
0, 0, 0, 0, 0, 0, 61, 105, 0, 136, 0, 0, -1, 0, 118, 0, 0, 31, 87, 0, 95, 160, 163, 0, 54, 203, 0, 238, 188, 117, 0, 403, 168, 0, 0, 399, 0, 0, 108, 
0, 0, 0, 0, 0, 0, 0, 296, 35, 0, 447, 71, 0, -1, 370, 0, 426, 316, 98, 14, 0, 0, 0, 0, 431, 79, 0, 478, 0, 0, 340, 0, 0, 455, 0, 0, 18, 1, 474, 
0, 0, 0, 0, 0, 0, 28, 361, 0, 110, 0, 0, 118, 370, -1, 55, 0, 69, 207, 0, 0, 0, 0, 0, 0, 0, 16, 491, 54, 175, 222, 258, 0, 0, 0, 0, 0, 177, 0, 
459, 493, 454, 0, 28, 0, 9, 0, 92, 0, 0, 456, 0, 0, 55, -1, 357, 0, 0, 0, 0, 1, 0, 0, 8, 0, 355, 0, 16, 268, 276, 434, 0, 155, 0, 79, 34, 0, 0, 
0, 20, 0, 135, 386, 315, 179, 0, 45, 0, 181, 0, 0, 426, 0, 357, -1, 0, 4, 349, 51, 432, 0, 0, 0, 68, 179, 0, 12, 81, 0, 0, 0, 0, 0, 34, 29, 301, 477, 
0, 207, 0, 0, 57, 54, 34, 366, 0, 0, 109, 0, 31, 316, 69, 0, 0, -1, 444, 0, 337, 0, 80, 0, 134, 91, 0, 439, 481, 71, 468, 301, 0, 0, 354, 0, 0, 299, 0, 
256, 0, 0, 0, 0, 67, 0, 165, 205, 60, 0, 307, 87, 98, 207, 0, 4, 444, -1, 478, 460, 256, 0, 0, 0, 0, 310, 0, 0, 0, 0, 74, 0, 0, 286, 438, 467, 227, 251, 
114, 0, 0, 0, 33, 0, 0, 139, 0, 0, 0, 0, 0, 14, 0, 0, 349, 0, 478, -1, 455, 121, 0, 0, 133, 358, 64, 97, 21, 90, 95, 0, 0, 0, 386, 0, 385, 0, 266, 
0, 307, 466, 0, 491, 352, 311, 0, 9, 0, 403, 275, 95, 0, 0, 0, 51, 337, 460, 455, -1, 197, 80, 0, 397, 318, 408, 68, 55, 116, 347, 460, 228, 65, 7, 173, 0, 272, 376, 
0, 0, 0, 0, 0, 219, 0, 208, 162, 435, 0, 51, 160, 0, 0, 1, 432, 0, 256, 121, 197, -1, 0, 0, 0, 495, 0, 434, 340, 159, 0, 0, 166, 0, 37, 0, 218, 0, 335, 
0, 0, 0, 0, 0, 389, 293, 34, 300, 131, 393, 0, 163, 0, 0, 0, 0, 80, 0, 0, 80, 0, -1, 257, 0, 0, 492, 62, 0, 0, 0, 0, 0, 174, 454, 0, 0, 0, 0, 
0, 0, 0, 136, 0, 0, 0, 323, 0, 402, 0, 490, 0, 0, 0, 0, 0, 0, 0, 0, 0, 0, 257, -1, 330, 0, 275, 485, 0, 27, 0, 0, 0, 26, 0, 0, 0, 0, 0, 
264, 0, 298, 0, 0, 0, 0, 0, 0, 238, 0, 0, 54, 431, 0, 8, 0, 134, 0, 133, 397, 0, 0, 330, -1, 438, 203, 0, 29, 0, 21, 0, 310, 0, 0, 481, 41, 72, 29, 
399, 0, 203, 431, 0, 0, 77, 58, 0, 0, 0, 227, 203, 79, 0, 0, 68, 91, 0, 358, 318, 495, 0, 0, 438, -1, 0, 227, 0, 0, 0, 62, 0, 0, 0, 0, 0, 316, 319, 
0, 0, 44, 0, 347, 382, 309, 0, 418, 99, 204, 491, 0, 0, 16, 355, 179, 0, 310, 64, 408, 0, 492, 275, 203, 0, -1, 0, 0, 39, 0, 0, 0, 0, 0, 0, 11, 0, 0, 
241, 0, 0, 0, 179, 320, 0, 496, 0, 175, 0, 297, 238, 478, 491, 0, 0, 439, 0, 97, 68, 434, 62, 485, 0, 227, 0, -1, 0, 269, 0, 0, 0, 255, 456, 0, 0, 33, 0, 
77, 0, 0, 0, 80, 114, 0, 90, 0, 0, 0, 0, 188, 0, 54, 16, 12, 481, 0, 21, 55, 340, 0, 0, 29, 0, 0, 0, -1, 142, 77, 0, 0, 71, 145, 0, 0, 71, 0, 
0, 0, 0, 0, 0, 46, 301, 0, 0, 461, 0, 0, 117, 0, 175, 268, 81, 71, 0, 90, 116, 159, 0, 27, 0, 0, 39, 269, 142, -1, 0, 0, 0, 0, 0, 0, 451, 0, 433, 
419, 0, 320, 458, 0, 0, 0, 29, 0, 0, 0, 0, 0, 340, 222, 276, 0, 468, 0, 95, 347, 0, 0, 0, 21, 0, 0, 0, 77, 0, -1, 0, 12, 74, 112, 0, 287, 57, 0, 
429, 0, 0, 0, 0, 463, 0, 351, 28, 395, 0, 297, 403, 0, 258, 434, 0, 301, 74, 0, 460, 0, 0, 0, 0, 62, 0, 0, 0, 0, 0, -1, 345, 0, 0, 467, 291, 214, 270, 
66, 0, 180, 219, 483, 0, 78, 231, 453, 0, 355, 0, 168, 0, 0, 0, 0, 0, 0, 0, 228, 166, 0, 0, 310, 0, 0, 0, 0, 0, 12, 345, -1, 0, 373, 144, 0, 121, 0, 
92, 404, 27, 49, 0, 163, 156, 0, 0, 468, 475, 68, 0, 455, 0, 155, 0, 0, 0, 0, 65, 0, 174, 26, 0, 0, 0, 255, 71, 0, 74, 0, 0, -1, 0, 0, 20, 471, 180, 
0, 456, 101, 88, 477, 0, 0, 0, 0, 0, 489, 0, 0, 0, 0, 0, 0, 354, 286, 386, 7, 37, 454, 0, 0, 0, 0, 456, 145, 0, 112, 0, 373, 0, -1, 157, 0, 0, 313, 
0, 0, 0, 0, 140, 0, 448, 106, 97, 0, 292, 13, 399, 0, 0, 79, 34, 0, 438, 0, 173, 0, 0, 0, 481, 0, 0, 0, 0, 0, 0, 467, 144, 0, 157, -1, 468, 279, 395, 
0, 72, 416, 66, 0, 0, 0, 130, 311, 0, 22, 0, 0, 18, 0, 34, 29, 0, 467, 385, 0, 218, 0, 0, 41, 0, 11, 0, 0, 451, 287, 291, 0, 20, 0, 468, -1, 16, 476, 
361, 0, 0, 0, 0, 0, 0, 0, 458, 0, 79, 151, 0, 1, 177, 0, 301, 299, 227, 0, 272, 0, 0, 0, 72, 316, 0, 33, 71, 0, 57, 214, 121, 471, 0, 279, 16, -1, 0, 
89, 0, 155, 0, 480, 0, 0, 14, 0, 0, 0, 5, 108, 474, 0, 0, 477, 0, 251, 266, 376, 335, 0, 0, 29, 319, 0, 0, 0, 433, 0, 270, 0, 180, 313, 395, 476, 0, -1]